15 4 
4059	4059	4059	4059	
56	906	988	
817	656	697	
698	0	0	
917	722	757	
187	292	307	
91	512	548	
66	879	957	
881	965	1013	
939	174	187	
958	337	352	
26	175	191	
735	322	349	
24	639	654	
168	683	726	
732	857	879	
